c cnf/enc1_cachet.cnf
c bif/cancer.bif
c
p cnf 30 74
w 1 -1
w 2 -1
w 3 0.9
w 4 0.1
w 5 -1
w 6 -1
w 7 0.3
w 8 0.7
w 9 -1
w 10 -1
w 11 0.03
w 12 0.001
w 13 0.05
w 14 0.02
w 15 0.97
w 16 0.999
w 17 0.95
w 18 0.98
w 19 -1
w 20 -1
w 21 0.9
w 22 0.2
w 23 0.1
w 24 0.8
w 25 -1
w 26 -1
w 27 0.65
w 28 0.3
w 29 0.35
w 30 0.7
1 2 0
-1 -2 0
-1 3 0
-3 1 0
-2 4 0
-4 2 0
5 6 0
-5 -6 0
-5 7 0
-7 5 0
-6 8 0
-8 6 0
9 10 0
-9 -10 0
-9 -1 -5 11 0
-11 9 0
-11 1 0
-11 5 0
-9 -1 -6 12 0
-12 9 0
-12 1 0
-12 6 0
-9 -2 -5 13 0
-13 9 0
-13 2 0
-13 5 0
-9 -2 -6 14 0
-14 9 0
-14 2 0
-14 6 0
-10 -1 -5 15 0
-15 10 0
-15 1 0
-15 5 0
-10 -1 -6 16 0
-16 10 0
-16 1 0
-16 6 0
-10 -2 -5 17 0
-17 10 0
-17 2 0
-17 5 0
-10 -2 -6 18 0
-18 10 0
-18 2 0
-18 6 0
19 20 0
-19 -20 0
-19 -9 21 0
-21 19 0
-21 9 0
-19 -10 22 0
-22 19 0
-22 10 0
-20 -9 23 0
-23 20 0
-23 9 0
-20 -10 24 0
-24 20 0
-24 10 0
25 26 0
-25 -26 0
-25 -9 27 0
-27 25 0
-27 9 0
-25 -10 28 0
-28 25 0
-28 10 0
-26 -9 29 0
-29 26 0
-29 9 0
-26 -10 30 0
-30 26 0
-30 10 0
